letting n =  10
letting blocks =  [[1, 6], [1, 8], [2, 6], [2, 10], [3, 4], [3, 5], [3, 6], [3, 7], [3, 8], [3, 9], [4, 1], [4, 4], [4, 9], [4, 10], [5, 7], [6, 1], [6, 2], [6, 7], [7, 3], [7, 4], [7, 6], [7, 10], [8, 5], [8, 9], [9, 6], [9, 9], [10, 9], [10, 10]]
